c 
c G(n,p) graph
c graph gen seed     : 23891
c number of vertices : 60
c max number of edges: 1770
c edge probability   : 0.200000
c data structure     : sparse
c
c           Graph Stats
c number of vertices  : 60
c nonisolated vertices: 60
c number of edges     : 378
c edge density        : 0.213559
c max degree          : 22
c avg degree          : 12.60
c min degree          : 6
p col 60 378
e 1 45
e 1 35
e 1 28
e 1 26
e 1 25
e 1 22
e 1 13
e 1 8
e 1 6
e 1 3
e 1 2
e 2 52
e 2 51
e 2 50
e 2 49
e 2 32
e 2 31
e 2 28
e 2 26
e 2 21
e 2 18
e 2 16
e 2 9
e 2 5
e 2 3
e 3 57
e 3 56
e 3 55
e 3 48
e 3 47
e 3 46
e 3 43
e 3 40
e 3 39
e 3 38
e 3 36
e 3 35
e 3 34
e 3 33
e 3 26
e 3 25
e 3 21
e 3 19
e 3 15
e 3 9
e 4 57
e 4 54
e 4 43
e 4 19
e 4 18
e 4 12
e 4 5
e 5 60
e 5 58
e 5 57
e 5 47
e 5 44
e 5 43
e 5 32
e 5 30
e 5 25
e 5 24
e 5 18
e 5 11
e 5 8
e 6 55
e 6 52
e 6 48
e 6 38
e 6 33
e 6 20
e 6 12
e 6 9
e 7 48
e 7 42
e 7 38
e 7 33
e 7 16
e 7 8
e 8 60
e 8 55
e 8 47
e 8 43
e 8 39
e 8 14
e 9 57
e 9 46
e 9 41
e 9 40
e 9 33
e 9 32
e 9 29
e 9 28
e 9 23
e 10 60
e 10 59
e 10 51
e 10 44
e 10 40
e 10 28
e 10 26
e 10 25
e 10 14
e 11 57
e 11 55
e 11 52
e 11 51
e 11 44
e 11 40
e 11 39
e 11 36
e 11 25
e 11 23
e 11 16
e 11 15
e 12 57
e 12 53
e 12 52
e 12 38
e 12 36
e 12 30
e 12 23
e 12 18
e 12 15
e 12 13
e 13 55
e 13 49
e 13 48
e 13 47
e 13 45
e 13 43
e 13 41
e 13 37
e 13 26
e 13 23
e 13 17
e 13 14
e 14 59
e 14 54
e 14 51
e 14 44
e 14 42
e 14 37
e 14 36
e 14 35
e 14 32
e 14 31
e 14 27
e 14 16
e 14 15
e 15 60
e 15 55
e 15 54
e 15 43
e 15 37
e 15 34
e 15 18
e 15 16
e 16 59
e 16 58
e 16 56
e 16 33
e 16 27
e 16 23
e 17 45
e 17 42
e 17 39
e 17 30
e 17 26
e 17 22
e 17 21
e 17 19
e 18 60
e 18 59
e 18 55
e 18 49
e 18 44
e 18 40
e 18 35
e 18 34
e 18 29
e 18 28
e 18 27
e 18 22
e 19 60
e 19 58
e 19 57
e 19 51
e 19 48
e 19 47
e 19 40
e 19 38
e 19 37
e 19 32
e 19 28
e 19 25
e 19 24
e 20 56
e 20 52
e 20 45
e 20 43
e 20 41
e 20 30
e 20 22
e 21 54
e 21 50
e 21 46
e 21 41
e 21 35
e 21 29
e 22 60
e 22 56
e 22 53
e 22 52
e 22 50
e 22 49
e 22 47
e 22 45
e 22 43
e 22 37
e 22 33
e 22 31
e 22 29
e 23 49
e 23 48
e 23 44
e 23 38
e 23 29
e 23 28
e 24 51
e 24 49
e 24 32
e 24 30
e 25 60
e 25 48
e 25 44
e 25 39
e 25 37
e 25 35
e 26 52
e 26 49
e 26 48
e 26 42
e 26 37
e 26 36
e 26 34
e 26 30
e 26 28
e 27 58
e 27 56
e 27 55
e 27 50
e 27 48
e 27 36
e 28 51
e 28 47
e 28 44
e 28 43
e 28 41
e 29 60
e 29 53
e 29 46
e 29 40
e 29 39
e 29 32
e 30 59
e 30 57
e 30 55
e 30 51
e 30 50
e 30 47
e 30 46
e 30 43
e 30 42
e 30 31
e 31 57
e 31 54
e 31 53
e 31 45
e 31 44
e 31 40
e 32 57
e 32 54
e 32 52
e 32 51
e 32 50
e 32 41
e 32 39
e 33 55
e 33 53
e 33 50
e 33 45
e 33 42
e 34 60
e 34 59
e 34 57
e 34 55
e 34 49
e 34 45
e 34 37
e 35 54
e 35 53
e 35 51
e 35 48
e 35 46
e 35 44
e 36 60
e 36 58
e 36 54
e 36 53
e 36 50
e 36 47
e 36 46
e 36 45
e 36 44
e 36 38
e 37 57
e 37 52
e 37 48
e 37 40
e 38 60
e 38 59
e 38 53
e 38 52
e 38 50
e 38 45
e 38 39
e 39 57
e 39 47
e 40 60
e 40 58
e 40 57
e 40 53
e 40 52
e 40 49
e 40 45
e 40 41
e 41 59
e 41 56
e 41 49
e 41 46
e 41 43
e 42 58
e 42 53
e 42 51
e 42 46
e 43 54
e 43 53
e 43 52
e 43 47
e 43 44
e 44 60
e 44 53
e 44 49
e 45 57
e 45 46
e 46 60
e 46 55
e 46 52
e 46 47
e 48 58
e 48 57
e 48 56
e 49 59
e 49 57
e 49 50
e 50 60
e 50 56
e 51 56
e 51 54
e 52 58
e 52 55
e 53 59
e 53 56
e 53 54
e 54 60
e 54 57
e 58 59
